NAME : pairs_conservative.txt.668729.tour
COMMENT : Length = 668729
COMMENT : Found by LKH [Keld Helsgaun] Tue Sep 17 09:53:52 2013
TYPE : TOUR
DIMENSION : 69
TOUR_SECTION
1
21
4
25
63
66
9
46
56
65
23
6
58
50
34
41
49
15
45
55
14
53
57
26
52
69
39
18
13
54
38
36
17
8
28
16
24
5
3
64
32
68
10
40
48
12
22
35
20
37
31
7
2
11
33
60
43
47
62
51
42
61
59
44
29
27
67
19
30
-1
EOF
